peakDumbCharging = 14800; 
Machine = anon_enum(16); 
machineSpeed = [3700,3700,3700,3700,3700,3700,3700,3700,3700,3700,3700,3700,3700,3700,3700,3700]; 
machineLoad = [3700,3700,3700,3700,3700,3700,3700,3700,3700,3700,3700,3700,3700,3700,3700,3700]; 
Car = anon_enum(19); 
demandCar = [3080,4600,4280,800,6200,6800,3040,320,17560,3600,13600,1120,4400,1840,21560,5800,2640,11000,8680]; 
arrivalCar = [69,64,63,63,61,61,61,58,57,50,50,47,46,38,36,35,32,29,22]; 
departureCar = [71,66,66,65,65,64,64,59,64,54,56,49,50,40,44,41,36,34,60]; 
